c Complex circuit with multiple interdependent logic gates
c This circuit represents a satisfiable configuration
c with mixed clause types for comprehensive testing
p cnf 12 28
1 0
-1 2 3 0
2 -4 0
-2 5 6 0
3 -5 0
4 7 -8 0
-4 -7 9 0
5 8 -9 0
-6 10 0
6 -10 11 0
7 -11 12 0
-7 8 0
9 -12 0
-8 -9 10 0
10 11 -12 0
-3 4 5 0
1 -2 6 0
-5 -6 7 0
8 9 -10 0
-11 12 1 0
2 3 -4 0
-1 -3 8 0
4 -5 -11 0
6 7 9 0
-8 10 12 0
11 -12 2 0
-9 -10 -11 0
3 5 12 0